m = 3; % number of couriers
n = 5; % number of packages

l = [5, 5, 6]; % maximum carriable weight per courier
s = [3, 1, 2, 2, 1]; % weight of each package

D = % distance matrix 
	 [| 2, 2, 3, 4, 3, 2
	 | 2, 4, 4, 2, 4, 1
	 | 3, 4, 4, 2, 1, 1
	 | 4, 2, 2, 3, 2, 4
	 | 3, 4, 1, 2, 3, 1
	 | 3, 4, 4, 4, 1, 1
	 |];